StudentsNr = 10;
InstructorsNr = 100;
DaysNr = 1;
SlotsPerDay = 10;
AvailabilitySlotsLenght = 1;
RoomNr = 1;
ProgrammNr = 2;
DegreeNr = 2;
RolesNr = 3;
CoursesNr = 4;
InstructorsProgramm = [{2}, {1}, {1}, {1, 2}, {1}, {1, 2}, {2}, {1, 2}, {2}, {1}, {2}, {2}, {2}, {2}, {1}, {1}, {2}, {1}, {1}, {1}, {1}, {1}, {2}, {1, 2}, {1, 2}, {1, 2}, {2}, {1}, {1}, {2}, {1, 2}, {2}, {1, 2}, {2}, {1, 2}, {1, 2}, {1}, {2}, {1}, {1}, {2}, {1}, {1, 2}, {1}, {1}, {1}, {1}, {1, 2}, {1}, {1, 2}, {1}, {1, 2}, {2}, {1, 2}, {1}, {1, 2}, {1, 2}, {1}, {2}, {2}, {1}, {2}, {1}, {1}, {2}, {1}, {2}, {2}, {1}, {1, 2}, {1}, {1, 2}, {1}, {2}, {2}, {2}, {2}, {2}, {2}, {1}, {2}, {1}, {1}, {2}, {1}, {2}, {1, 2}, {1}, {1}, {2}, {1}, {1, 2}, {1}, {1}, {1}, {1}, {1}, {1}, {1}, {1}];
InstructorRolesPerProgramm = [|{2, 16, 20, 24, 25, 26, 29, 31, 35, 36, 39, 44, 45, 46, 47, 48, 49, 51, 52, 57, 64, 70, 71, 72, 88, 89, 93, 95, 99}, {3, 5, 8, 10, 20, 22, 26, 31, 37, 39, 42, 47, 52, 61, 63, 64, 87, 98, 99}, {2, 3, 4, 6, 15, 18, 21, 22, 25, 28, 29, 33, 37, 40, 43, 55, 56, 61, 63, 64, 69, 71, 72, 83, 87, 89, 92, 93, 98, 99}|{1, 7, 23, 24, 25, 26, 27, 31, 34, 35, 36, 41, 48, 52, 57, 62, 65, 70, 72, 74, 76, 77, 78, 81, 86, 90}, {7, 8, 9, 12, 14, 17, 26, 31, 32, 38, 41, 52, 53, 59, 62, 74, 79, 87}, {4, 6, 12, 13, 17, 23, 25, 27, 32, 33, 34, 43, 53, 56, 59, 68, 72, 79, 81, 87, 92}|];
InstructorsAvailability = [|1, 1, 1, 0, 0, 0, 0, 0, 0, 1, |1, 1, 1, 1, 1, 1, 0, 1, 1, 1, |0, 1, 1, 1, 1, 1, 1, 0, 1, 1, |0, 1, 1, 1, 1, 1, 1, 1, 1, 1, |1, 0, 1, 1, 1, 1, 1, 1, 1, 0, |0, 1, 1, 1, 1, 1, 1, 1, 1, 1, |0, 1, 1, 1, 1, 1, 1, 1, 1, 1, |1, 1, 0, 1, 1, 1, 1, 1, 1, 1, |0, 1, 1, 1, 1, 1, 1, 1, 1, 1, |0, 1, 0, 1, 1, 1, 1, 1, 1, 1, |0, 0, 1, 1, 1, 1, 1, 1, 1, 1, |0, 1, 1, 0, 0, 0, 1, 0, 0, 1, |0, 0, 0, 0, 1, 1, 1, 1, 1, 1, |0, 0, 0, 1, 1, 1, 1, 1, 0, 1, |1, 1, 1, 1, 0, 1, 0, 1, 1, 0, |0, 0, 0, 0, 1, 1, 1, 1, 1, 0, |0, 1, 1, 1, 0, 0, 1, 1, 0, 1, |1, 1, 1, 1, 1, 1, 1, 1, 1, 0, |0, 1, 1, 0, 1, 1, 1, 1, 1, 1, |0, 0, 1, 1, 1, 1, 1, 0, 0, 1, |0, 0, 1, 1, 0, 1, 1, 0, 1, 1, |1, 1, 1, 1, 1, 1, 1, 1, 1, 1, |0, 1, 1, 1, 1, 1, 1, 1, 1, 1, |0, 1, 1, 1, 1, 1, 1, 1, 1, 1, |0, 1, 1, 1, 1, 0, 0, 1, 1, 1, |1, 1, 1, 1, 0, 0, 0, 0, 0, 1, |1, 1, 1, 1, 1, 1, 1, 1, 1, 1, |1, 1, 1, 1, 1, 1, 1, 1, 1, 1, |1, 1, 1, 1, 1, 1, 1, 1, 1, 1, |0, 1, 1, 1, 1, 0, 1, 1, 1, 1, |0, 0, 0, 0, 0, 0, 1, 1, 1, 1, |1, 1, 1, 1, 1, 1, 1, 1, 1, 1, |0, 1, 0, 0, 1, 1, 1, 1, 0, 1, |0, 0, 1, 1, 1, 1, 1, 1, 1, 1, |0, 1, 1, 1, 1, 1, 1, 1, 1, 1, |1, 1, 0, 1, 1, 1, 1, 1, 1, 1, |0, 0, 0, 0, 1, 1, 0, 1, 1, 1, |1, 1, 1, 1, 0, 1, 1, 1, 1, 0, |0, 1, 1, 1, 1, 1, 0, 0, 1, 1, |1, 1, 1, 1, 1, 0, 1, 1, 1, 0, |0, 1, 1, 1, 1, 1, 1, 1, 1, 1, |0, 1, 1, 1, 1, 1, 1, 1, 0, 0, |1, 1, 1, 1, 1, 1, 1, 1, 1, 1, |0, 0, 0, 1, 1, 1, 1, 1, 1, 1, |1, 1, 1, 0, 1, 0, 0, 1, 1, 1, |1, 0, 1, 1, 1, 1, 1, 0, 0, 0, |1, 1, 1, 0, 0, 1, 1, 1, 1, 0, |1, 1, 1, 1, 1, 1, 0, 1, 1, 1, |0, 1, 1, 0, 1, 1, 1, 1, 1, 1, |0, 1, 0, 0, 0, 1, 1, 1, 1, 1, |0, 0, 0, 1, 1, 1, 1, 1, 0, 1, |0, 0, 1, 1, 1, 1, 1, 1, 1, 1, |0, 1, 1, 1, 1, 1, 1, 1, 1, 0, |1, 1, 1, 0, 1, 0, 0, 0, 1, 1, |1, 1, 1, 1, 0, 0, 0, 1, 1, 1, |0, 1, 0, 0, 0, 1, 1, 1, 1, 1, |0, 1, 1, 1, 1, 0, 1, 1, 1, 1, |0, 1, 1, 1, 1, 1, 1, 1, 1, 1, |0, 1, 1, 1, 1, 1, 1, 1, 1, 1, |0, 1, 1, 0, 1, 1, 1, 0, 0, 0, |1, 1, 1, 1, 1, 1, 1, 1, 1, 1, |1, 0, 0, 0, 0, 1, 1, 1, 1, 1, |0, 1, 0, 1, 1, 1, 0, 1, 1, 1, |1, 1, 1, 0, 0, 0, 1, 1, 1, 1, |1, 1, 1, 1, 1, 1, 0, 0, 1, 1, |1, 1, 1, 1, 1, 1, 1, 1, 1, 1, |1, 1, 1, 1, 1, 1, 0, 1, 1, 1, |1, 1, 1, 1, 1, 1, 1, 1, 1, 1, |1, 1, 1, 1, 1, 0, 1, 1, 0, 1, |0, 0, 1, 1, 1, 1, 1, 1, 0, 1, |1, 1, 1, 1, 1, 1, 0, 0, 0, 1, |1, 0, 1, 1, 1, 1, 1, 1, 1, 1, |1, 1, 1, 1, 1, 0, 0, 0, 1, 1, |1, 1, 1, 1, 1, 1, 1, 1, 1, 1, |0, 1, 1, 1, 1, 1, 1, 1, 1, 0, |1, 1, 1, 1, 1, 0, 1, 1, 0, 0, |0, 1, 1, 1, 0, 1, 1, 1, 1, 1, |1, 1, 1, 1, 1, 1, 1, 1, 1, 1, |1, 1, 1, 1, 1, 1, 1, 1, 1, 1, |1, 1, 1, 1, 1, 1, 1, 1, 1, 1, |0, 1, 0, 1, 1, 1, 1, 1, 1, 1, |0, 0, 1, 1, 1, 1, 1, 0, 0, 0, |0, 1, 0, 1, 1, 0, 0, 0, 1, 0, |1, 1, 1, 1, 1, 1, 1, 1, 1, 1, |0, 0, 1, 0, 0, 1, 0, 0, 1, 1, |0, 1, 1, 1, 1, 1, 1, 1, 0, 1, |0, 0, 0, 0, 0, 1, 1, 1, 1, 1, |0, 1, 1, 1, 1, 1, 1, 1, 1, 1, |0, 1, 0, 0, 1, 1, 0, 0, 1, 1, |0, 1, 1, 1, 1, 0, 1, 1, 1, 0, |1, 1, 1, 0, 0, 1, 1, 1, 1, 0, |0, 0, 0, 1, 1, 1, 1, 1, 1, 1, |1, 1, 0, 0, 1, 1, 1, 0, 1, 1, |1, 1, 1, 1, 1, 1, 1, 1, 1, 1, |1, 0, 0, 1, 1, 1, 1, 1, 1, 1, |1, 1, 0, 1, 1, 0, 1, 1, 1, 1, |1, 0, 0, 0, 1, 1, 0, 1, 1, 1, |0, 0, 1, 1, 1, 0, 1, 1, 1, 1, |0, 0, 0, 0, 0, 1, 1, 1, 1, 1, |0, 0, 1, 1, 0, 1, 1, 1, 0, 0|];
StudentsProgramm = [1, 2, 2, 2, 2, 1, 2, 1, 2, 2];
StudentsDegree = [2, 1, 1, 2, 1, 2, 1, 1, 2, 1];
StudentsSupervisorId = [10, 12, 92, 57, 70, 24, 43, 31, 56, 48];
StudentsCourseIds = [{1, 3, 4}, {1, 3}, {1, 3}, {2, 3, 4}, {1, 3}, {1, 2, 3}, {1, 3}, {3, 4}, {1, 3, 4}, {1, 2}];
StudentsAvailability = [|0, 0, 0, 1, 1, 1, 1, 1, 1, 1, |1, 1, 1, 1, 1, 1, 1, 1, 1, 1, |0, 1, 1, 1, 1, 1, 1, 1, 0, 0, |0, 1, 1, 1, 1, 1, 1, 1, 1, 1, |0, 1, 1, 1, 1, 0, 1, 1, 1, 1, |0, 1, 1, 1, 1, 1, 1, 1, 1, 1, |0, 1, 1, 1, 1, 1, 1, 0, 1, 1, |0, 1, 1, 1, 1, 1, 1, 1, 1, 1, |0, 1, 1, 1, 1, 1, 1, 1, 1, 1, |1, 1, 1, 1, 1, 1, 1, 1, 1, 1|];
TheoryticalMinCard = [0, 0, 0, 0, 0, 0, 0, 0, 0, 0];
CoursesInstructorIds = [{2, 3, 6, 8, 9, 12, 14, 15, 16, 23, 24, 29, 33, 36, 44, 46, 49, 53, 54, 55, 56, 58, 59, 63, 64, 68, 69, 70, 71, 73, 74, 78, 79, 80, 81, 83, 84, 85, 86, 87, 88, 93, 94, 95, 96, 97, 98, 100}, {1, 2, 3, 5, 7, 10, 11, 12, 13, 14, 15, 16, 17, 18, 19, 21, 23, 26, 28, 30, 33, 34, 35, 37, 39, 40, 41, 44, 46, 47, 48, 49, 51, 52, 53, 55, 56, 58, 63, 64, 66, 67, 70, 72, 77, 78, 81, 82, 83, 86, 88, 89, 90, 93, 95, 98, 100}, {3, 4, 7, 8, 9, 15, 16, 19, 21, 25, 30, 32, 54, 62, 65, 70, 71, 77, 78, 83, 90, 99, 100}, {1, 2, 8, 9, 10, 14, 15, 16, 20, 23, 27, 29, 32, 33, 34, 35, 36, 37, 38, 39, 43, 44, 46, 48, 51, 53, 58, 59, 60, 61, 62, 63, 65, 69, 72, 73, 74, 76, 77, 78, 79, 80, 81, 82, 84, 85, 86, 89, 90, 92, 93, 94, 96, 100}];
RolesDemands = [6, 12, 7];
RolesContinuity = [2, 3];
ExamLen = [1, 2, 2, 1, 2, 1, 2, 2, 1, 2];
LunchTsMinLen = 1;
LunchStarts = [4..7];
SupervisorAvailable = 0;
OptimalLunchLenght = [0, 1];
OptimalStartTs = [1, 0];
OptimalFinishTs = [0, 10];
MinimizeRooms = 400;
RolesSoftContinuity = [|1, 2, 3|1, 1, 4|];
SameDegreeInRoom = 20;
Mergeability = 0;
